Name:		mgval_0.40_8A
Optimal value:	393
#Vehicles:	3
Capacity:	200
Depot Node:	1
#Nodes:		30
#Edges:		20
#Arcs:		76
#Required N:	23
#Required E:	12
#Required A:	45

ReN.	DEMAND	S. COST
N2	9	9
N3	3	3
N5	13	13
N6	10	10
N7	12	12
N8	28	28
N11	19	19
N12	9	9
N13	9	9
N15	11	11
N17	10	10
N18	7	7
N19	6	6
N20	11	11
N21	9	9
N22	26	26
N23	10	10
N24	3	3
N25	2	2
N26	11	11
N27	5	5
N28	13	13
N29	5	5

ReE.	FROM N.	TO N.	T. COST	DEMAND	S. COST
E9	25	29	3	5	5
E10	14	17	4	8	8
E11	28	29	7	10	10
E12	8	15	10	16	16
E13	1	9	10	16	16
E14	18	23	3	7	7
E15	16	20	3	5	5
E16	22	25	2	6	6
E17	26	30	3	4	4
E18	5	8	8	11	11
E19	8	14	7	12	12
E20	13	16	8	10	10

EDGE	FROM N.	TO N.	T. COST
NrE1	1	2	4
NrE2	6	11	7
NrE3	22	29	4
NrE4	23	30	3
NrE5	8	9	7
NrE6	7	8	8
NrE7	8	13	6
NrE8	17	18	5

ReA.	FROM N.	TO N.	T. COST	DEMAND	S. COST
A32	17	13	7	6	6
A33	22	17	5	6	6
A34	16	17	9	6	6
A35	21	29	8	5	5
A36	8	1	7	5	5
A37	13	14	5	4	4
A38	7	12	8	5	5
A39	14	15	9	10	10
A40	14	13	5	4	4
A41	17	16	9	7	7
A42	6	7	3	3	3
A43	10	19	10	6	6
A44	4	5	5	5	5
A45	4	6	3	4	4
A46	19	18	2	3	3
A47	19	10	10	6	6
A48	21	16	7	4	4
A49	1	8	7	5	5
A50	15	18	3	3	3
A51	12	16	6	4	4
A52	29	30	6	6	6
A53	18	26	9	6	6
A54	30	25	1	2	2
A55	9	15	3	4	4
A56	20	21	7	4	4
A57	6	4	3	4	4
A58	30	29	6	7	7
A59	24	21	5	6	6
A60	11	20	10	6	6
A61	20	24	2	2	2
A62	16	12	6	5	5
A63	27	20	5	4	4
A64	24	20	2	3	3
A65	3	10	6	6	6
A66	2	9	5	4	4
A67	9	2	5	4	4
A68	2	3	3	3	3
A69	10	3	6	6	6
A70	27	24	5	5	5
A71	24	27	5	4	4
A72	7	4	1	2	2
A73	10	9	3	10	10
A74	16	21	7	4	4
A75	4	7	1	2	2
A76	15	19	7	5	5

ARC	FROM N.	TO N.	T. COST
NrA1	21	20	7
NrA2	3	2	3
NrA3	1	5	3
NrA4	7	6	3
NrA5	20	11	10
NrA6	11	16	5
NrA7	19	15	7
NrA8	13	17	7
NrA9	22	23	10
NrA10	20	27	5
NrA11	18	19	2
NrA12	26	23	7
NrA13	28	24	2
NrA14	29	21	8
NrA15	15	10	5
NrA16	24	28	2
NrA17	15	9	3
NrA18	22	21	5
NrA19	28	27	10
NrA20	12	13	3
NrA21	11	12	5
NrA22	25	30	1
NrA23	23	26	7
NrA24	12	7	8
NrA25	21	28	5
NrA26	13	12	3
NrA27	5	4	5
NrA28	18	15	3
NrA29	27	28	10
NrA30	26	18	9
NrA31	28	21	5
